
;this file is automatically generated: Mon Oct 04 22:33:12 IST 2021

;declarations generated

(declare-fun oclExcludes ( Int Int) Bool)
(declare-fun Cardinality ( Int) Int)
(declare-fun type_945e86d3_2823_4f21_9f2a_39778a1f9395_Class20 ( Int) Bool)
(declare-fun type_945e86d3_2823_4f21_9f2a_39778a1f9395_Class21 ( Int) Bool)
(declare-fun type_945e86d3_2823_4f21_9f2a_39778a1f9395_Class22 ( Int) Bool)
(declare-fun type_945e86d3_2823_4f21_9f2a_39778a1f9395_Class23 ( Int) Bool)
(declare-fun type_945e86d3_2823_4f21_9f2a_39778a1f9395_Class17 ( Int) Bool)
(declare-fun type_945e86d3_2823_4f21_9f2a_39778a1f9395_Class18 ( Int) Bool)
(declare-fun type_945e86d3_2823_4f21_9f2a_39778a1f9395_Class19 ( Int) Bool)
(declare-fun type_945e86d3_2823_4f21_9f2a_39778a1f9395_Class13 ( Int) Bool)
(declare-fun type_945e86d3_2823_4f21_9f2a_39778a1f9395_Class14 ( Int) Bool)
(declare-fun type_945e86d3_2823_4f21_9f2a_39778a1f9395_Class15 ( Int) Bool)
(declare-fun type_945e86d3_2823_4f21_9f2a_39778a1f9395_Class16 ( Int) Bool)
(declare-fun type_945e86d3_2823_4f21_9f2a_39778a1f9395_Class10 ( Int) Bool)
(declare-fun type_945e86d3_2823_4f21_9f2a_39778a1f9395_Class11 ( Int) Bool)
(declare-fun type_945e86d3_2823_4f21_9f2a_39778a1f9395_Class12 ( Int) Bool)
(declare-fun oclSelect ( Int Bool) Int)
(declare-fun type_945e86d3_2823_4f21_9f2a_39778a1f9395_Class42 ( Int) Bool)
(declare-fun type_945e86d3_2823_4f21_9f2a_39778a1f9395_Class43 ( Int) Bool)
(declare-fun type_945e86d3_2823_4f21_9f2a_39778a1f9395_Class44 ( Int) Bool)
(declare-fun type_945e86d3_2823_4f21_9f2a_39778a1f9395_Class45 ( Int) Bool)
(declare-fun type_945e86d3_2823_4f21_9f2a_39778a1f9395_Class40 ( Int) Bool)
(declare-fun type_945e86d3_2823_4f21_9f2a_39778a1f9395_Class41 ( Int) Bool)
(declare-fun type_945e86d3_2823_4f21_9f2a_39778a1f9395_Class39 ( Int) Bool)
(declare-fun type_945e86d3_2823_4f21_9f2a_39778a1f9395_Class35 ( Int) Bool)
(declare-fun type_945e86d3_2823_4f21_9f2a_39778a1f9395_Class36 ( Int) Bool)
(declare-fun type_945e86d3_2823_4f21_9f2a_39778a1f9395_Class37 ( Int) Bool)
(declare-fun type_945e86d3_2823_4f21_9f2a_39778a1f9395_Class38 ( Int) Bool)
(declare-fun type_945e86d3_2823_4f21_9f2a_39778a1f9395_Class31 ( Int) Bool)
(declare-fun type_945e86d3_2823_4f21_9f2a_39778a1f9395_Class32 ( Int) Bool)
(declare-fun type_945e86d3_2823_4f21_9f2a_39778a1f9395_Class33 ( Int) Bool)
(declare-fun type_945e86d3_2823_4f21_9f2a_39778a1f9395_Class34 ( Int) Bool)
(declare-fun type_945e86d3_2823_4f21_9f2a_39778a1f9395_Class30 ( Int) Bool)
(declare-fun type_945e86d3_2823_4f21_9f2a_39778a1f9395_Class28 ( Int) Bool)
(declare-fun type_945e86d3_2823_4f21_9f2a_39778a1f9395_Class29 ( Int) Bool)
(declare-fun type_945e86d3_2823_4f21_9f2a_39778a1f9395_Class24 ( Int) Bool)
(declare-fun type_945e86d3_2823_4f21_9f2a_39778a1f9395_Class25 ( Int) Bool)
(declare-fun type_945e86d3_2823_4f21_9f2a_39778a1f9395_Class26 ( Int) Bool)
(declare-fun type_945e86d3_2823_4f21_9f2a_39778a1f9395_Class27 ( Int) Bool)
(declare-fun type_945e86d3_2823_4f21_9f2a_39778a1f9395_Class53 ( Int) Bool)
(declare-fun type_945e86d3_2823_4f21_9f2a_39778a1f9395_Class54 ( Int) Bool)
(declare-fun type_945e86d3_2823_4f21_9f2a_39778a1f9395_Class55 ( Int) Bool)
(declare-fun type_945e86d3_2823_4f21_9f2a_39778a1f9395_Class50 ( Int) Bool)
(declare-fun type_945e86d3_2823_4f21_9f2a_39778a1f9395_Class51 ( Int) Bool)
(declare-fun type_945e86d3_2823_4f21_9f2a_39778a1f9395_Class52 ( Int) Bool)
(declare-fun type_945e86d3_2823_4f21_9f2a_39778a1f9395_Class46 ( Int) Bool)
(declare-fun type_945e86d3_2823_4f21_9f2a_39778a1f9395_Class47 ( Int) Bool)
(declare-fun type_945e86d3_2823_4f21_9f2a_39778a1f9395_Class48 ( Int) Bool)
(declare-fun type_945e86d3_2823_4f21_9f2a_39778a1f9395_Class49 ( Int) Bool)
(declare-fun type_945e86d3_2823_4f21_9f2a_39778a1f9395_Class8 ( Int) Bool)
(declare-fun type_945e86d3_2823_4f21_9f2a_39778a1f9395_Class9 ( Int) Bool)
(declare-fun type_945e86d3_2823_4f21_9f2a_39778a1f9395_Class6 ( Int) Bool)
(declare-fun type_945e86d3_2823_4f21_9f2a_39778a1f9395_Class7 ( Int) Bool)
(declare-fun type_945e86d3_2823_4f21_9f2a_39778a1f9395_Class0 ( Int) Bool)
(declare-fun type_945e86d3_2823_4f21_9f2a_39778a1f9395_Class1 ( Int) Bool)
(declare-fun type_945e86d3_2823_4f21_9f2a_39778a1f9395_Class4 ( Int) Bool)
(declare-fun type_945e86d3_2823_4f21_9f2a_39778a1f9395_Class5 ( Int) Bool)
(declare-fun type_945e86d3_2823_4f21_9f2a_39778a1f9395_Class2 ( Int) Bool)
(declare-fun type_945e86d3_2823_4f21_9f2a_39778a1f9395_Class3 ( Int) Bool)
(declare-fun Enum0 ( Int) Int)
(declare-fun Enum1 ( Int) Int)
(declare-fun obj_630e6e55_aeab_4de4_8f14_e62da0d45674 ( Int) Int)
(declare-fun Enum2 ( Int) Int)
(declare-fun class42_Class42IntAttr2 ( Int) Int)
(declare-fun container_ ( Int) Int)
(declare-fun class42_Class42IntAttr4 ( Int) Int)
(declare-fun class42_Class42IntAttr3 ( Int) Int)
(declare-fun oclIncludes ( Int Int) Bool)
(declare-fun ObjAt ( Int Int) Int)

;formula(s) generated
(assert (! (forall ((c2_1 Int)(c2_2 Int)) (=> (and (and ( type_945e86d3_2823_4f21_9f2a_39778a1f9395_Class42 c2_1 )  ( type_945e86d3_2823_4f21_9f2a_39778a1f9395_Class39 c2_1 ) ) (and ( type_945e86d3_2823_4f21_9f2a_39778a1f9395_Class42 c2_2 )  ( type_945e86d3_2823_4f21_9f2a_39778a1f9395_Class39 c2_2 ) )) (< ( class42_Class42IntAttr2 ( obj_630e6e55_aeab_4de4_8f14_e62da0d45674 c2_1 )  )  ( class42_Class42IntAttr4 ( obj_630e6e55_aeab_4de4_8f14_e62da0d45674 c2_2 )  ) ))):named l0))
(assert (! (forall ((c1 Int)(c2 Int)) (=> (and (and ( type_945e86d3_2823_4f21_9f2a_39778a1f9395_Class42 c1 )  ( type_945e86d3_2823_4f21_9f2a_39778a1f9395_Class39 c1 ) ) (and ( type_945e86d3_2823_4f21_9f2a_39778a1f9395_Class42 c2 )  ( type_945e86d3_2823_4f21_9f2a_39778a1f9395_Class39 c2 ) )) (forall ((v Int)) (=> (and ( type_945e86d3_2823_4f21_9f2a_39778a1f9395_Class42 v )  ( type_945e86d3_2823_4f21_9f2a_39778a1f9395_Class39 v ) ) (= ( class42_Class42IntAttr3 ( obj_630e6e55_aeab_4de4_8f14_e62da0d45674 v )  )  ( class42_Class42IntAttr2 ( obj_630e6e55_aeab_4de4_8f14_e62da0d45674 c1 )  ) ))))):named l1))
(assert (! (exists ((o Int)) ( type_945e86d3_2823_4f21_9f2a_39778a1f9395_Class0 ( obj_630e6e55_aeab_4de4_8f14_e62da0d45674 o )  ) ):named c0))
(assert (! (exists ((o Int)) (and (and (and (and (and ( type_945e86d3_2823_4f21_9f2a_39778a1f9395_Class1 ( obj_630e6e55_aeab_4de4_8f14_e62da0d45674 o )  )  ( type_945e86d3_2823_4f21_9f2a_39778a1f9395_Class45 ( obj_630e6e55_aeab_4de4_8f14_e62da0d45674 o )  ) ) ( type_945e86d3_2823_4f21_9f2a_39778a1f9395_Class12 ( obj_630e6e55_aeab_4de4_8f14_e62da0d45674 o )  ) ) ( type_945e86d3_2823_4f21_9f2a_39778a1f9395_Class33 ( obj_630e6e55_aeab_4de4_8f14_e62da0d45674 o )  ) ) ( type_945e86d3_2823_4f21_9f2a_39778a1f9395_Class22 ( obj_630e6e55_aeab_4de4_8f14_e62da0d45674 o )  ) ) ( type_945e86d3_2823_4f21_9f2a_39778a1f9395_Class39 ( obj_630e6e55_aeab_4de4_8f14_e62da0d45674 o )  ) )):named c1))
(assert (! (exists ((o Int)) (and (and (and (and (and (and (and (and (and ( type_945e86d3_2823_4f21_9f2a_39778a1f9395_Class10 ( obj_630e6e55_aeab_4de4_8f14_e62da0d45674 o )  )  ( type_945e86d3_2823_4f21_9f2a_39778a1f9395_Class45 ( obj_630e6e55_aeab_4de4_8f14_e62da0d45674 o )  ) ) ( type_945e86d3_2823_4f21_9f2a_39778a1f9395_Class12 ( obj_630e6e55_aeab_4de4_8f14_e62da0d45674 o )  ) ) ( type_945e86d3_2823_4f21_9f2a_39778a1f9395_Class55 ( obj_630e6e55_aeab_4de4_8f14_e62da0d45674 o )  ) ) ( type_945e86d3_2823_4f21_9f2a_39778a1f9395_Class33 ( obj_630e6e55_aeab_4de4_8f14_e62da0d45674 o )  ) ) ( type_945e86d3_2823_4f21_9f2a_39778a1f9395_Class22 ( obj_630e6e55_aeab_4de4_8f14_e62da0d45674 o )  ) ) ( type_945e86d3_2823_4f21_9f2a_39778a1f9395_Class29 ( obj_630e6e55_aeab_4de4_8f14_e62da0d45674 o )  ) ) ( type_945e86d3_2823_4f21_9f2a_39778a1f9395_Class39 ( obj_630e6e55_aeab_4de4_8f14_e62da0d45674 o )  ) ) ( type_945e86d3_2823_4f21_9f2a_39778a1f9395_Class50 ( obj_630e6e55_aeab_4de4_8f14_e62da0d45674 o )  ) ) ( type_945e86d3_2823_4f21_9f2a_39778a1f9395_Class41 ( obj_630e6e55_aeab_4de4_8f14_e62da0d45674 o )  ) )):named c2))
(assert (! (exists ((o Int)) ( type_945e86d3_2823_4f21_9f2a_39778a1f9395_Class11 ( obj_630e6e55_aeab_4de4_8f14_e62da0d45674 o )  ) ):named c3))
(assert (! (exists ((o Int)) (and (and (and ( type_945e86d3_2823_4f21_9f2a_39778a1f9395_Class12 ( obj_630e6e55_aeab_4de4_8f14_e62da0d45674 o )  )  ( type_945e86d3_2823_4f21_9f2a_39778a1f9395_Class33 ( obj_630e6e55_aeab_4de4_8f14_e62da0d45674 o )  ) ) ( type_945e86d3_2823_4f21_9f2a_39778a1f9395_Class22 ( obj_630e6e55_aeab_4de4_8f14_e62da0d45674 o )  ) ) ( type_945e86d3_2823_4f21_9f2a_39778a1f9395_Class39 ( obj_630e6e55_aeab_4de4_8f14_e62da0d45674 o )  ) )):named c4))
(assert (! (exists ((o Int)) (and (and (and (and (and (and (and (and (and ( type_945e86d3_2823_4f21_9f2a_39778a1f9395_Class13 ( obj_630e6e55_aeab_4de4_8f14_e62da0d45674 o )  )  ( type_945e86d3_2823_4f21_9f2a_39778a1f9395_Class45 ( obj_630e6e55_aeab_4de4_8f14_e62da0d45674 o )  ) ) ( type_945e86d3_2823_4f21_9f2a_39778a1f9395_Class12 ( obj_630e6e55_aeab_4de4_8f14_e62da0d45674 o )  ) ) ( type_945e86d3_2823_4f21_9f2a_39778a1f9395_Class55 ( obj_630e6e55_aeab_4de4_8f14_e62da0d45674 o )  ) ) ( type_945e86d3_2823_4f21_9f2a_39778a1f9395_Class33 ( obj_630e6e55_aeab_4de4_8f14_e62da0d45674 o )  ) ) ( type_945e86d3_2823_4f21_9f2a_39778a1f9395_Class22 ( obj_630e6e55_aeab_4de4_8f14_e62da0d45674 o )  ) ) ( type_945e86d3_2823_4f21_9f2a_39778a1f9395_Class29 ( obj_630e6e55_aeab_4de4_8f14_e62da0d45674 o )  ) ) ( type_945e86d3_2823_4f21_9f2a_39778a1f9395_Class39 ( obj_630e6e55_aeab_4de4_8f14_e62da0d45674 o )  ) ) ( type_945e86d3_2823_4f21_9f2a_39778a1f9395_Class50 ( obj_630e6e55_aeab_4de4_8f14_e62da0d45674 o )  ) ) ( type_945e86d3_2823_4f21_9f2a_39778a1f9395_Class41 ( obj_630e6e55_aeab_4de4_8f14_e62da0d45674 o )  ) )):named c5))
(assert (! (exists ((o Int)) (and (and (and (and (and (and (and (and (and ( type_945e86d3_2823_4f21_9f2a_39778a1f9395_Class14 ( obj_630e6e55_aeab_4de4_8f14_e62da0d45674 o )  )  ( type_945e86d3_2823_4f21_9f2a_39778a1f9395_Class45 ( obj_630e6e55_aeab_4de4_8f14_e62da0d45674 o )  ) ) ( type_945e86d3_2823_4f21_9f2a_39778a1f9395_Class12 ( obj_630e6e55_aeab_4de4_8f14_e62da0d45674 o )  ) ) ( type_945e86d3_2823_4f21_9f2a_39778a1f9395_Class55 ( obj_630e6e55_aeab_4de4_8f14_e62da0d45674 o )  ) ) ( type_945e86d3_2823_4f21_9f2a_39778a1f9395_Class33 ( obj_630e6e55_aeab_4de4_8f14_e62da0d45674 o )  ) ) ( type_945e86d3_2823_4f21_9f2a_39778a1f9395_Class22 ( obj_630e6e55_aeab_4de4_8f14_e62da0d45674 o )  ) ) ( type_945e86d3_2823_4f21_9f2a_39778a1f9395_Class29 ( obj_630e6e55_aeab_4de4_8f14_e62da0d45674 o )  ) ) ( type_945e86d3_2823_4f21_9f2a_39778a1f9395_Class39 ( obj_630e6e55_aeab_4de4_8f14_e62da0d45674 o )  ) ) ( type_945e86d3_2823_4f21_9f2a_39778a1f9395_Class50 ( obj_630e6e55_aeab_4de4_8f14_e62da0d45674 o )  ) ) ( type_945e86d3_2823_4f21_9f2a_39778a1f9395_Class41 ( obj_630e6e55_aeab_4de4_8f14_e62da0d45674 o )  ) )):named c6))
(assert (! (exists ((o Int)) ( type_945e86d3_2823_4f21_9f2a_39778a1f9395_Class15 ( obj_630e6e55_aeab_4de4_8f14_e62da0d45674 o )  ) ):named c7))
(assert (! (exists ((o Int)) (and (and (and (and (and ( type_945e86d3_2823_4f21_9f2a_39778a1f9395_Class16 ( obj_630e6e55_aeab_4de4_8f14_e62da0d45674 o )  )  ( type_945e86d3_2823_4f21_9f2a_39778a1f9395_Class45 ( obj_630e6e55_aeab_4de4_8f14_e62da0d45674 o )  ) ) ( type_945e86d3_2823_4f21_9f2a_39778a1f9395_Class12 ( obj_630e6e55_aeab_4de4_8f14_e62da0d45674 o )  ) ) ( type_945e86d3_2823_4f21_9f2a_39778a1f9395_Class33 ( obj_630e6e55_aeab_4de4_8f14_e62da0d45674 o )  ) ) ( type_945e86d3_2823_4f21_9f2a_39778a1f9395_Class22 ( obj_630e6e55_aeab_4de4_8f14_e62da0d45674 o )  ) ) ( type_945e86d3_2823_4f21_9f2a_39778a1f9395_Class39 ( obj_630e6e55_aeab_4de4_8f14_e62da0d45674 o )  ) )):named c8))
(assert (! (exists ((o Int)) ( type_945e86d3_2823_4f21_9f2a_39778a1f9395_Class17 ( obj_630e6e55_aeab_4de4_8f14_e62da0d45674 o )  ) ):named c9))
(assert (! (exists ((o Int)) (and (and (and ( type_945e86d3_2823_4f21_9f2a_39778a1f9395_Class18 ( obj_630e6e55_aeab_4de4_8f14_e62da0d45674 o )  )  ( type_945e86d3_2823_4f21_9f2a_39778a1f9395_Class25 ( obj_630e6e55_aeab_4de4_8f14_e62da0d45674 o )  ) ) ( type_945e86d3_2823_4f21_9f2a_39778a1f9395_Class24 ( obj_630e6e55_aeab_4de4_8f14_e62da0d45674 o )  ) ) ( type_945e86d3_2823_4f21_9f2a_39778a1f9395_Class39 ( obj_630e6e55_aeab_4de4_8f14_e62da0d45674 o )  ) )):named c10))
(assert (! (exists ((o Int)) (and (and (and (and (and (and (and (and (and ( type_945e86d3_2823_4f21_9f2a_39778a1f9395_Class19 ( obj_630e6e55_aeab_4de4_8f14_e62da0d45674 o )  )  ( type_945e86d3_2823_4f21_9f2a_39778a1f9395_Class45 ( obj_630e6e55_aeab_4de4_8f14_e62da0d45674 o )  ) ) ( type_945e86d3_2823_4f21_9f2a_39778a1f9395_Class12 ( obj_630e6e55_aeab_4de4_8f14_e62da0d45674 o )  ) ) ( type_945e86d3_2823_4f21_9f2a_39778a1f9395_Class55 ( obj_630e6e55_aeab_4de4_8f14_e62da0d45674 o )  ) ) ( type_945e86d3_2823_4f21_9f2a_39778a1f9395_Class33 ( obj_630e6e55_aeab_4de4_8f14_e62da0d45674 o )  ) ) ( type_945e86d3_2823_4f21_9f2a_39778a1f9395_Class22 ( obj_630e6e55_aeab_4de4_8f14_e62da0d45674 o )  ) ) ( type_945e86d3_2823_4f21_9f2a_39778a1f9395_Class29 ( obj_630e6e55_aeab_4de4_8f14_e62da0d45674 o )  ) ) ( type_945e86d3_2823_4f21_9f2a_39778a1f9395_Class39 ( obj_630e6e55_aeab_4de4_8f14_e62da0d45674 o )  ) ) ( type_945e86d3_2823_4f21_9f2a_39778a1f9395_Class50 ( obj_630e6e55_aeab_4de4_8f14_e62da0d45674 o )  ) ) ( type_945e86d3_2823_4f21_9f2a_39778a1f9395_Class41 ( obj_630e6e55_aeab_4de4_8f14_e62da0d45674 o )  ) )):named c11))
(assert (! (exists ((o Int)) ( type_945e86d3_2823_4f21_9f2a_39778a1f9395_Class2 ( obj_630e6e55_aeab_4de4_8f14_e62da0d45674 o )  ) ):named c12))
(assert (! (exists ((o Int)) ( type_945e86d3_2823_4f21_9f2a_39778a1f9395_Class20 ( obj_630e6e55_aeab_4de4_8f14_e62da0d45674 o )  ) ):named c13))
(assert (! (exists ((o Int)) (and (and (and (and (and (and (and (and (and ( type_945e86d3_2823_4f21_9f2a_39778a1f9395_Class21 ( obj_630e6e55_aeab_4de4_8f14_e62da0d45674 o )  )  ( type_945e86d3_2823_4f21_9f2a_39778a1f9395_Class45 ( obj_630e6e55_aeab_4de4_8f14_e62da0d45674 o )  ) ) ( type_945e86d3_2823_4f21_9f2a_39778a1f9395_Class12 ( obj_630e6e55_aeab_4de4_8f14_e62da0d45674 o )  ) ) ( type_945e86d3_2823_4f21_9f2a_39778a1f9395_Class33 ( obj_630e6e55_aeab_4de4_8f14_e62da0d45674 o )  ) ) ( type_945e86d3_2823_4f21_9f2a_39778a1f9395_Class22 ( obj_630e6e55_aeab_4de4_8f14_e62da0d45674 o )  ) ) ( type_945e86d3_2823_4f21_9f2a_39778a1f9395_Class16 ( obj_630e6e55_aeab_4de4_8f14_e62da0d45674 o )  ) ) ( type_945e86d3_2823_4f21_9f2a_39778a1f9395_Class29 ( obj_630e6e55_aeab_4de4_8f14_e62da0d45674 o )  ) ) ( type_945e86d3_2823_4f21_9f2a_39778a1f9395_Class39 ( obj_630e6e55_aeab_4de4_8f14_e62da0d45674 o )  ) ) ( type_945e86d3_2823_4f21_9f2a_39778a1f9395_Class41 ( obj_630e6e55_aeab_4de4_8f14_e62da0d45674 o )  ) ) ( type_945e86d3_2823_4f21_9f2a_39778a1f9395_Class51 ( obj_630e6e55_aeab_4de4_8f14_e62da0d45674 o )  ) )):named c14))
(assert (! (exists ((o Int)) (and ( type_945e86d3_2823_4f21_9f2a_39778a1f9395_Class22 ( obj_630e6e55_aeab_4de4_8f14_e62da0d45674 o )  )  ( type_945e86d3_2823_4f21_9f2a_39778a1f9395_Class39 ( obj_630e6e55_aeab_4de4_8f14_e62da0d45674 o )  ) )):named c15))
(assert (! (exists ((o Int)) (and (and (and (and ( type_945e86d3_2823_4f21_9f2a_39778a1f9395_Class23 ( obj_630e6e55_aeab_4de4_8f14_e62da0d45674 o )  )  ( type_945e86d3_2823_4f21_9f2a_39778a1f9395_Class25 ( obj_630e6e55_aeab_4de4_8f14_e62da0d45674 o )  ) ) ( type_945e86d3_2823_4f21_9f2a_39778a1f9395_Class24 ( obj_630e6e55_aeab_4de4_8f14_e62da0d45674 o )  ) ) ( type_945e86d3_2823_4f21_9f2a_39778a1f9395_Class39 ( obj_630e6e55_aeab_4de4_8f14_e62da0d45674 o )  ) ) ( type_945e86d3_2823_4f21_9f2a_39778a1f9395_Class5 ( obj_630e6e55_aeab_4de4_8f14_e62da0d45674 o )  ) )):named c16))
(assert (! (exists ((o Int)) (and (and ( type_945e86d3_2823_4f21_9f2a_39778a1f9395_Class24 ( obj_630e6e55_aeab_4de4_8f14_e62da0d45674 o )  )  ( type_945e86d3_2823_4f21_9f2a_39778a1f9395_Class25 ( obj_630e6e55_aeab_4de4_8f14_e62da0d45674 o )  ) ) ( type_945e86d3_2823_4f21_9f2a_39778a1f9395_Class39 ( obj_630e6e55_aeab_4de4_8f14_e62da0d45674 o )  ) )):named c17))
(assert (! (exists ((o Int)) (and ( type_945e86d3_2823_4f21_9f2a_39778a1f9395_Class25 ( obj_630e6e55_aeab_4de4_8f14_e62da0d45674 o )  )  ( type_945e86d3_2823_4f21_9f2a_39778a1f9395_Class39 ( obj_630e6e55_aeab_4de4_8f14_e62da0d45674 o )  ) )):named c18))
(assert (! (exists ((o Int)) ( type_945e86d3_2823_4f21_9f2a_39778a1f9395_Class26 ( obj_630e6e55_aeab_4de4_8f14_e62da0d45674 o )  ) ):named c19))
(assert (! (exists ((o Int)) ( type_945e86d3_2823_4f21_9f2a_39778a1f9395_Class27 ( obj_630e6e55_aeab_4de4_8f14_e62da0d45674 o )  ) ):named c20))
(assert (! (exists ((o Int)) (and (and (and (and (and (and (and ( type_945e86d3_2823_4f21_9f2a_39778a1f9395_Class28 ( obj_630e6e55_aeab_4de4_8f14_e62da0d45674 o )  )  ( type_945e86d3_2823_4f21_9f2a_39778a1f9395_Class45 ( obj_630e6e55_aeab_4de4_8f14_e62da0d45674 o )  ) ) ( type_945e86d3_2823_4f21_9f2a_39778a1f9395_Class12 ( obj_630e6e55_aeab_4de4_8f14_e62da0d45674 o )  ) ) ( type_945e86d3_2823_4f21_9f2a_39778a1f9395_Class33 ( obj_630e6e55_aeab_4de4_8f14_e62da0d45674 o )  ) ) ( type_945e86d3_2823_4f21_9f2a_39778a1f9395_Class22 ( obj_630e6e55_aeab_4de4_8f14_e62da0d45674 o )  ) ) ( type_945e86d3_2823_4f21_9f2a_39778a1f9395_Class29 ( obj_630e6e55_aeab_4de4_8f14_e62da0d45674 o )  ) ) ( type_945e86d3_2823_4f21_9f2a_39778a1f9395_Class39 ( obj_630e6e55_aeab_4de4_8f14_e62da0d45674 o )  ) ) ( type_945e86d3_2823_4f21_9f2a_39778a1f9395_Class41 ( obj_630e6e55_aeab_4de4_8f14_e62da0d45674 o )  ) )):named c21))
(assert (! (exists ((o Int)) (and (and (and (and (and (and ( type_945e86d3_2823_4f21_9f2a_39778a1f9395_Class29 ( obj_630e6e55_aeab_4de4_8f14_e62da0d45674 o )  )  ( type_945e86d3_2823_4f21_9f2a_39778a1f9395_Class45 ( obj_630e6e55_aeab_4de4_8f14_e62da0d45674 o )  ) ) ( type_945e86d3_2823_4f21_9f2a_39778a1f9395_Class12 ( obj_630e6e55_aeab_4de4_8f14_e62da0d45674 o )  ) ) ( type_945e86d3_2823_4f21_9f2a_39778a1f9395_Class33 ( obj_630e6e55_aeab_4de4_8f14_e62da0d45674 o )  ) ) ( type_945e86d3_2823_4f21_9f2a_39778a1f9395_Class22 ( obj_630e6e55_aeab_4de4_8f14_e62da0d45674 o )  ) ) ( type_945e86d3_2823_4f21_9f2a_39778a1f9395_Class39 ( obj_630e6e55_aeab_4de4_8f14_e62da0d45674 o )  ) ) ( type_945e86d3_2823_4f21_9f2a_39778a1f9395_Class41 ( obj_630e6e55_aeab_4de4_8f14_e62da0d45674 o )  ) )):named c22))
(assert (! (exists ((o Int)) (and (and (and ( type_945e86d3_2823_4f21_9f2a_39778a1f9395_Class3 ( obj_630e6e55_aeab_4de4_8f14_e62da0d45674 o )  )  ( type_945e86d3_2823_4f21_9f2a_39778a1f9395_Class25 ( obj_630e6e55_aeab_4de4_8f14_e62da0d45674 o )  ) ) ( type_945e86d3_2823_4f21_9f2a_39778a1f9395_Class24 ( obj_630e6e55_aeab_4de4_8f14_e62da0d45674 o )  ) ) ( type_945e86d3_2823_4f21_9f2a_39778a1f9395_Class39 ( obj_630e6e55_aeab_4de4_8f14_e62da0d45674 o )  ) )):named c23))
(assert (! (exists ((o Int)) (and ( type_945e86d3_2823_4f21_9f2a_39778a1f9395_Class30 ( obj_630e6e55_aeab_4de4_8f14_e62da0d45674 o )  )  ( type_945e86d3_2823_4f21_9f2a_39778a1f9395_Class39 ( obj_630e6e55_aeab_4de4_8f14_e62da0d45674 o )  ) )):named c24))
(assert (! (exists ((o Int)) (and (and (and (and (and ( type_945e86d3_2823_4f21_9f2a_39778a1f9395_Class31 ( obj_630e6e55_aeab_4de4_8f14_e62da0d45674 o )  )  ( type_945e86d3_2823_4f21_9f2a_39778a1f9395_Class45 ( obj_630e6e55_aeab_4de4_8f14_e62da0d45674 o )  ) ) ( type_945e86d3_2823_4f21_9f2a_39778a1f9395_Class12 ( obj_630e6e55_aeab_4de4_8f14_e62da0d45674 o )  ) ) ( type_945e86d3_2823_4f21_9f2a_39778a1f9395_Class33 ( obj_630e6e55_aeab_4de4_8f14_e62da0d45674 o )  ) ) ( type_945e86d3_2823_4f21_9f2a_39778a1f9395_Class22 ( obj_630e6e55_aeab_4de4_8f14_e62da0d45674 o )  ) ) ( type_945e86d3_2823_4f21_9f2a_39778a1f9395_Class39 ( obj_630e6e55_aeab_4de4_8f14_e62da0d45674 o )  ) )):named c25))
(assert (! (exists ((o Int)) ( type_945e86d3_2823_4f21_9f2a_39778a1f9395_Class32 ( obj_630e6e55_aeab_4de4_8f14_e62da0d45674 o )  ) ):named c26))
(assert (! (exists ((o Int)) (and (and ( type_945e86d3_2823_4f21_9f2a_39778a1f9395_Class33 ( obj_630e6e55_aeab_4de4_8f14_e62da0d45674 o )  )  ( type_945e86d3_2823_4f21_9f2a_39778a1f9395_Class22 ( obj_630e6e55_aeab_4de4_8f14_e62da0d45674 o )  ) ) ( type_945e86d3_2823_4f21_9f2a_39778a1f9395_Class39 ( obj_630e6e55_aeab_4de4_8f14_e62da0d45674 o )  ) )):named c27))
(assert (! (exists ((o Int)) (and (and (and ( type_945e86d3_2823_4f21_9f2a_39778a1f9395_Class34 ( obj_630e6e55_aeab_4de4_8f14_e62da0d45674 o )  )  ( type_945e86d3_2823_4f21_9f2a_39778a1f9395_Class25 ( obj_630e6e55_aeab_4de4_8f14_e62da0d45674 o )  ) ) ( type_945e86d3_2823_4f21_9f2a_39778a1f9395_Class24 ( obj_630e6e55_aeab_4de4_8f14_e62da0d45674 o )  ) ) ( type_945e86d3_2823_4f21_9f2a_39778a1f9395_Class39 ( obj_630e6e55_aeab_4de4_8f14_e62da0d45674 o )  ) )):named c28))
(assert (! (exists ((o Int)) (and (and ( type_945e86d3_2823_4f21_9f2a_39778a1f9395_Class35 ( obj_630e6e55_aeab_4de4_8f14_e62da0d45674 o )  )  ( type_945e86d3_2823_4f21_9f2a_39778a1f9395_Class39 ( obj_630e6e55_aeab_4de4_8f14_e62da0d45674 o )  ) ) ( type_945e86d3_2823_4f21_9f2a_39778a1f9395_Class30 ( obj_630e6e55_aeab_4de4_8f14_e62da0d45674 o )  ) )):named c29))
(assert (! (exists ((o Int)) ( type_945e86d3_2823_4f21_9f2a_39778a1f9395_Class36 ( obj_630e6e55_aeab_4de4_8f14_e62da0d45674 o )  ) ):named c30))
(assert (! (exists ((o Int)) ( type_945e86d3_2823_4f21_9f2a_39778a1f9395_Class37 ( obj_630e6e55_aeab_4de4_8f14_e62da0d45674 o )  ) ):named c31))
(assert (! (exists ((o Int)) ( type_945e86d3_2823_4f21_9f2a_39778a1f9395_Class38 ( obj_630e6e55_aeab_4de4_8f14_e62da0d45674 o )  ) ):named c32))
(assert (! (exists ((o Int)) ( type_945e86d3_2823_4f21_9f2a_39778a1f9395_Class39 ( obj_630e6e55_aeab_4de4_8f14_e62da0d45674 o )  ) ):named c33))
(assert (! (exists ((o Int)) ( type_945e86d3_2823_4f21_9f2a_39778a1f9395_Class4 ( obj_630e6e55_aeab_4de4_8f14_e62da0d45674 o )  ) ):named c34))
(assert (! (exists ((o Int)) (and (and (and (and (and (and (and (and (and ( type_945e86d3_2823_4f21_9f2a_39778a1f9395_Class40 ( obj_630e6e55_aeab_4de4_8f14_e62da0d45674 o )  )  ( type_945e86d3_2823_4f21_9f2a_39778a1f9395_Class45 ( obj_630e6e55_aeab_4de4_8f14_e62da0d45674 o )  ) ) ( type_945e86d3_2823_4f21_9f2a_39778a1f9395_Class12 ( obj_630e6e55_aeab_4de4_8f14_e62da0d45674 o )  ) ) ( type_945e86d3_2823_4f21_9f2a_39778a1f9395_Class55 ( obj_630e6e55_aeab_4de4_8f14_e62da0d45674 o )  ) ) ( type_945e86d3_2823_4f21_9f2a_39778a1f9395_Class33 ( obj_630e6e55_aeab_4de4_8f14_e62da0d45674 o )  ) ) ( type_945e86d3_2823_4f21_9f2a_39778a1f9395_Class22 ( obj_630e6e55_aeab_4de4_8f14_e62da0d45674 o )  ) ) ( type_945e86d3_2823_4f21_9f2a_39778a1f9395_Class29 ( obj_630e6e55_aeab_4de4_8f14_e62da0d45674 o )  ) ) ( type_945e86d3_2823_4f21_9f2a_39778a1f9395_Class39 ( obj_630e6e55_aeab_4de4_8f14_e62da0d45674 o )  ) ) ( type_945e86d3_2823_4f21_9f2a_39778a1f9395_Class50 ( obj_630e6e55_aeab_4de4_8f14_e62da0d45674 o )  ) ) ( type_945e86d3_2823_4f21_9f2a_39778a1f9395_Class41 ( obj_630e6e55_aeab_4de4_8f14_e62da0d45674 o )  ) )):named c35))
(assert (! (exists ((o Int)) (and (and (and (and (and ( type_945e86d3_2823_4f21_9f2a_39778a1f9395_Class41 ( obj_630e6e55_aeab_4de4_8f14_e62da0d45674 o )  )  ( type_945e86d3_2823_4f21_9f2a_39778a1f9395_Class45 ( obj_630e6e55_aeab_4de4_8f14_e62da0d45674 o )  ) ) ( type_945e86d3_2823_4f21_9f2a_39778a1f9395_Class12 ( obj_630e6e55_aeab_4de4_8f14_e62da0d45674 o )  ) ) ( type_945e86d3_2823_4f21_9f2a_39778a1f9395_Class33 ( obj_630e6e55_aeab_4de4_8f14_e62da0d45674 o )  ) ) ( type_945e86d3_2823_4f21_9f2a_39778a1f9395_Class22 ( obj_630e6e55_aeab_4de4_8f14_e62da0d45674 o )  ) ) ( type_945e86d3_2823_4f21_9f2a_39778a1f9395_Class39 ( obj_630e6e55_aeab_4de4_8f14_e62da0d45674 o )  ) )):named c36))
(assert (! (exists ((o Int)) (and ( type_945e86d3_2823_4f21_9f2a_39778a1f9395_Class42 ( obj_630e6e55_aeab_4de4_8f14_e62da0d45674 o )  )  ( type_945e86d3_2823_4f21_9f2a_39778a1f9395_Class39 ( obj_630e6e55_aeab_4de4_8f14_e62da0d45674 o )  ) )):named c37))
(assert (! (exists ((o Int)) ( type_945e86d3_2823_4f21_9f2a_39778a1f9395_Class43 ( obj_630e6e55_aeab_4de4_8f14_e62da0d45674 o )  ) ):named c38))
(assert (! (exists ((o Int)) (and (and (and (and (and (and (and ( type_945e86d3_2823_4f21_9f2a_39778a1f9395_Class44 ( obj_630e6e55_aeab_4de4_8f14_e62da0d45674 o )  )  ( type_945e86d3_2823_4f21_9f2a_39778a1f9395_Class45 ( obj_630e6e55_aeab_4de4_8f14_e62da0d45674 o )  ) ) ( type_945e86d3_2823_4f21_9f2a_39778a1f9395_Class12 ( obj_630e6e55_aeab_4de4_8f14_e62da0d45674 o )  ) ) ( type_945e86d3_2823_4f21_9f2a_39778a1f9395_Class33 ( obj_630e6e55_aeab_4de4_8f14_e62da0d45674 o )  ) ) ( type_945e86d3_2823_4f21_9f2a_39778a1f9395_Class22 ( obj_630e6e55_aeab_4de4_8f14_e62da0d45674 o )  ) ) ( type_945e86d3_2823_4f21_9f2a_39778a1f9395_Class29 ( obj_630e6e55_aeab_4de4_8f14_e62da0d45674 o )  ) ) ( type_945e86d3_2823_4f21_9f2a_39778a1f9395_Class39 ( obj_630e6e55_aeab_4de4_8f14_e62da0d45674 o )  ) ) ( type_945e86d3_2823_4f21_9f2a_39778a1f9395_Class41 ( obj_630e6e55_aeab_4de4_8f14_e62da0d45674 o )  ) )):named c39))
(assert (! (exists ((o Int)) (and (and (and (and ( type_945e86d3_2823_4f21_9f2a_39778a1f9395_Class45 ( obj_630e6e55_aeab_4de4_8f14_e62da0d45674 o )  )  ( type_945e86d3_2823_4f21_9f2a_39778a1f9395_Class12 ( obj_630e6e55_aeab_4de4_8f14_e62da0d45674 o )  ) ) ( type_945e86d3_2823_4f21_9f2a_39778a1f9395_Class33 ( obj_630e6e55_aeab_4de4_8f14_e62da0d45674 o )  ) ) ( type_945e86d3_2823_4f21_9f2a_39778a1f9395_Class22 ( obj_630e6e55_aeab_4de4_8f14_e62da0d45674 o )  ) ) ( type_945e86d3_2823_4f21_9f2a_39778a1f9395_Class39 ( obj_630e6e55_aeab_4de4_8f14_e62da0d45674 o )  ) )):named c40))
(assert (! (exists ((o Int)) (and (and ( type_945e86d3_2823_4f21_9f2a_39778a1f9395_Class46 ( obj_630e6e55_aeab_4de4_8f14_e62da0d45674 o )  )  ( type_945e86d3_2823_4f21_9f2a_39778a1f9395_Class39 ( obj_630e6e55_aeab_4de4_8f14_e62da0d45674 o )  ) ) ( type_945e86d3_2823_4f21_9f2a_39778a1f9395_Class5 ( obj_630e6e55_aeab_4de4_8f14_e62da0d45674 o )  ) )):named c41))
(assert (! (exists ((o Int)) ( type_945e86d3_2823_4f21_9f2a_39778a1f9395_Class47 ( obj_630e6e55_aeab_4de4_8f14_e62da0d45674 o )  ) ):named c42))
(assert (! (exists ((o Int)) (and (and (and (and (and (and (and (and (and ( type_945e86d3_2823_4f21_9f2a_39778a1f9395_Class48 ( obj_630e6e55_aeab_4de4_8f14_e62da0d45674 o )  )  ( type_945e86d3_2823_4f21_9f2a_39778a1f9395_Class45 ( obj_630e6e55_aeab_4de4_8f14_e62da0d45674 o )  ) ) ( type_945e86d3_2823_4f21_9f2a_39778a1f9395_Class12 ( obj_630e6e55_aeab_4de4_8f14_e62da0d45674 o )  ) ) ( type_945e86d3_2823_4f21_9f2a_39778a1f9395_Class55 ( obj_630e6e55_aeab_4de4_8f14_e62da0d45674 o )  ) ) ( type_945e86d3_2823_4f21_9f2a_39778a1f9395_Class33 ( obj_630e6e55_aeab_4de4_8f14_e62da0d45674 o )  ) ) ( type_945e86d3_2823_4f21_9f2a_39778a1f9395_Class22 ( obj_630e6e55_aeab_4de4_8f14_e62da0d45674 o )  ) ) ( type_945e86d3_2823_4f21_9f2a_39778a1f9395_Class29 ( obj_630e6e55_aeab_4de4_8f14_e62da0d45674 o )  ) ) ( type_945e86d3_2823_4f21_9f2a_39778a1f9395_Class39 ( obj_630e6e55_aeab_4de4_8f14_e62da0d45674 o )  ) ) ( type_945e86d3_2823_4f21_9f2a_39778a1f9395_Class50 ( obj_630e6e55_aeab_4de4_8f14_e62da0d45674 o )  ) ) ( type_945e86d3_2823_4f21_9f2a_39778a1f9395_Class41 ( obj_630e6e55_aeab_4de4_8f14_e62da0d45674 o )  ) )):named c43))
(assert (! (exists ((o Int)) (and (and (and (and (and (and (and (and (and ( type_945e86d3_2823_4f21_9f2a_39778a1f9395_Class49 ( obj_630e6e55_aeab_4de4_8f14_e62da0d45674 o )  )  ( type_945e86d3_2823_4f21_9f2a_39778a1f9395_Class45 ( obj_630e6e55_aeab_4de4_8f14_e62da0d45674 o )  ) ) ( type_945e86d3_2823_4f21_9f2a_39778a1f9395_Class12 ( obj_630e6e55_aeab_4de4_8f14_e62da0d45674 o )  ) ) ( type_945e86d3_2823_4f21_9f2a_39778a1f9395_Class55 ( obj_630e6e55_aeab_4de4_8f14_e62da0d45674 o )  ) ) ( type_945e86d3_2823_4f21_9f2a_39778a1f9395_Class33 ( obj_630e6e55_aeab_4de4_8f14_e62da0d45674 o )  ) ) ( type_945e86d3_2823_4f21_9f2a_39778a1f9395_Class22 ( obj_630e6e55_aeab_4de4_8f14_e62da0d45674 o )  ) ) ( type_945e86d3_2823_4f21_9f2a_39778a1f9395_Class29 ( obj_630e6e55_aeab_4de4_8f14_e62da0d45674 o )  ) ) ( type_945e86d3_2823_4f21_9f2a_39778a1f9395_Class39 ( obj_630e6e55_aeab_4de4_8f14_e62da0d45674 o )  ) ) ( type_945e86d3_2823_4f21_9f2a_39778a1f9395_Class50 ( obj_630e6e55_aeab_4de4_8f14_e62da0d45674 o )  ) ) ( type_945e86d3_2823_4f21_9f2a_39778a1f9395_Class41 ( obj_630e6e55_aeab_4de4_8f14_e62da0d45674 o )  ) )):named c44))
(assert (! (exists ((o Int)) (and ( type_945e86d3_2823_4f21_9f2a_39778a1f9395_Class5 ( obj_630e6e55_aeab_4de4_8f14_e62da0d45674 o )  )  ( type_945e86d3_2823_4f21_9f2a_39778a1f9395_Class39 ( obj_630e6e55_aeab_4de4_8f14_e62da0d45674 o )  ) )):named c45))
(assert (! (exists ((o Int)) (and (and (and (and (and (and (and (and ( type_945e86d3_2823_4f21_9f2a_39778a1f9395_Class50 ( obj_630e6e55_aeab_4de4_8f14_e62da0d45674 o )  )  ( type_945e86d3_2823_4f21_9f2a_39778a1f9395_Class45 ( obj_630e6e55_aeab_4de4_8f14_e62da0d45674 o )  ) ) ( type_945e86d3_2823_4f21_9f2a_39778a1f9395_Class12 ( obj_630e6e55_aeab_4de4_8f14_e62da0d45674 o )  ) ) ( type_945e86d3_2823_4f21_9f2a_39778a1f9395_Class55 ( obj_630e6e55_aeab_4de4_8f14_e62da0d45674 o )  ) ) ( type_945e86d3_2823_4f21_9f2a_39778a1f9395_Class33 ( obj_630e6e55_aeab_4de4_8f14_e62da0d45674 o )  ) ) ( type_945e86d3_2823_4f21_9f2a_39778a1f9395_Class22 ( obj_630e6e55_aeab_4de4_8f14_e62da0d45674 o )  ) ) ( type_945e86d3_2823_4f21_9f2a_39778a1f9395_Class29 ( obj_630e6e55_aeab_4de4_8f14_e62da0d45674 o )  ) ) ( type_945e86d3_2823_4f21_9f2a_39778a1f9395_Class39 ( obj_630e6e55_aeab_4de4_8f14_e62da0d45674 o )  ) ) ( type_945e86d3_2823_4f21_9f2a_39778a1f9395_Class41 ( obj_630e6e55_aeab_4de4_8f14_e62da0d45674 o )  ) )):named c46))
(assert (! (exists ((o Int)) (and (and (and (and (and (and ( type_945e86d3_2823_4f21_9f2a_39778a1f9395_Class51 ( obj_630e6e55_aeab_4de4_8f14_e62da0d45674 o )  )  ( type_945e86d3_2823_4f21_9f2a_39778a1f9395_Class45 ( obj_630e6e55_aeab_4de4_8f14_e62da0d45674 o )  ) ) ( type_945e86d3_2823_4f21_9f2a_39778a1f9395_Class12 ( obj_630e6e55_aeab_4de4_8f14_e62da0d45674 o )  ) ) ( type_945e86d3_2823_4f21_9f2a_39778a1f9395_Class33 ( obj_630e6e55_aeab_4de4_8f14_e62da0d45674 o )  ) ) ( type_945e86d3_2823_4f21_9f2a_39778a1f9395_Class22 ( obj_630e6e55_aeab_4de4_8f14_e62da0d45674 o )  ) ) ( type_945e86d3_2823_4f21_9f2a_39778a1f9395_Class16 ( obj_630e6e55_aeab_4de4_8f14_e62da0d45674 o )  ) ) ( type_945e86d3_2823_4f21_9f2a_39778a1f9395_Class39 ( obj_630e6e55_aeab_4de4_8f14_e62da0d45674 o )  ) )):named c47))
(assert (! (exists ((o Int)) (and (and (and (and (and ( type_945e86d3_2823_4f21_9f2a_39778a1f9395_Class52 ( obj_630e6e55_aeab_4de4_8f14_e62da0d45674 o )  )  ( type_945e86d3_2823_4f21_9f2a_39778a1f9395_Class45 ( obj_630e6e55_aeab_4de4_8f14_e62da0d45674 o )  ) ) ( type_945e86d3_2823_4f21_9f2a_39778a1f9395_Class12 ( obj_630e6e55_aeab_4de4_8f14_e62da0d45674 o )  ) ) ( type_945e86d3_2823_4f21_9f2a_39778a1f9395_Class33 ( obj_630e6e55_aeab_4de4_8f14_e62da0d45674 o )  ) ) ( type_945e86d3_2823_4f21_9f2a_39778a1f9395_Class22 ( obj_630e6e55_aeab_4de4_8f14_e62da0d45674 o )  ) ) ( type_945e86d3_2823_4f21_9f2a_39778a1f9395_Class39 ( obj_630e6e55_aeab_4de4_8f14_e62da0d45674 o )  ) )):named c48))
(assert (! (exists ((o Int)) ( type_945e86d3_2823_4f21_9f2a_39778a1f9395_Class53 ( obj_630e6e55_aeab_4de4_8f14_e62da0d45674 o )  ) ):named c49))
(assert (! (exists ((o Int)) ( type_945e86d3_2823_4f21_9f2a_39778a1f9395_Class54 ( obj_630e6e55_aeab_4de4_8f14_e62da0d45674 o )  ) ):named c50))
(assert (! (exists ((o Int)) (and (and (and (and (and (and (and ( type_945e86d3_2823_4f21_9f2a_39778a1f9395_Class55 ( obj_630e6e55_aeab_4de4_8f14_e62da0d45674 o )  )  ( type_945e86d3_2823_4f21_9f2a_39778a1f9395_Class45 ( obj_630e6e55_aeab_4de4_8f14_e62da0d45674 o )  ) ) ( type_945e86d3_2823_4f21_9f2a_39778a1f9395_Class12 ( obj_630e6e55_aeab_4de4_8f14_e62da0d45674 o )  ) ) ( type_945e86d3_2823_4f21_9f2a_39778a1f9395_Class33 ( obj_630e6e55_aeab_4de4_8f14_e62da0d45674 o )  ) ) ( type_945e86d3_2823_4f21_9f2a_39778a1f9395_Class22 ( obj_630e6e55_aeab_4de4_8f14_e62da0d45674 o )  ) ) ( type_945e86d3_2823_4f21_9f2a_39778a1f9395_Class29 ( obj_630e6e55_aeab_4de4_8f14_e62da0d45674 o )  ) ) ( type_945e86d3_2823_4f21_9f2a_39778a1f9395_Class39 ( obj_630e6e55_aeab_4de4_8f14_e62da0d45674 o )  ) ) ( type_945e86d3_2823_4f21_9f2a_39778a1f9395_Class41 ( obj_630e6e55_aeab_4de4_8f14_e62da0d45674 o )  ) )):named c51))
(assert (! (exists ((o Int)) ( type_945e86d3_2823_4f21_9f2a_39778a1f9395_Class6 ( obj_630e6e55_aeab_4de4_8f14_e62da0d45674 o )  ) ):named c52))
(assert (! (exists ((o Int)) (and (and (and (and (and (and (and (and (and ( type_945e86d3_2823_4f21_9f2a_39778a1f9395_Class7 ( obj_630e6e55_aeab_4de4_8f14_e62da0d45674 o )  )  ( type_945e86d3_2823_4f21_9f2a_39778a1f9395_Class45 ( obj_630e6e55_aeab_4de4_8f14_e62da0d45674 o )  ) ) ( type_945e86d3_2823_4f21_9f2a_39778a1f9395_Class12 ( obj_630e6e55_aeab_4de4_8f14_e62da0d45674 o )  ) ) ( type_945e86d3_2823_4f21_9f2a_39778a1f9395_Class55 ( obj_630e6e55_aeab_4de4_8f14_e62da0d45674 o )  ) ) ( type_945e86d3_2823_4f21_9f2a_39778a1f9395_Class33 ( obj_630e6e55_aeab_4de4_8f14_e62da0d45674 o )  ) ) ( type_945e86d3_2823_4f21_9f2a_39778a1f9395_Class22 ( obj_630e6e55_aeab_4de4_8f14_e62da0d45674 o )  ) ) ( type_945e86d3_2823_4f21_9f2a_39778a1f9395_Class29 ( obj_630e6e55_aeab_4de4_8f14_e62da0d45674 o )  ) ) ( type_945e86d3_2823_4f21_9f2a_39778a1f9395_Class39 ( obj_630e6e55_aeab_4de4_8f14_e62da0d45674 o )  ) ) ( type_945e86d3_2823_4f21_9f2a_39778a1f9395_Class50 ( obj_630e6e55_aeab_4de4_8f14_e62da0d45674 o )  ) ) ( type_945e86d3_2823_4f21_9f2a_39778a1f9395_Class41 ( obj_630e6e55_aeab_4de4_8f14_e62da0d45674 o )  ) )):named c53))
(assert (! (exists ((o Int)) (and ( type_945e86d3_2823_4f21_9f2a_39778a1f9395_Class8 ( obj_630e6e55_aeab_4de4_8f14_e62da0d45674 o )  )  ( type_945e86d3_2823_4f21_9f2a_39778a1f9395_Class39 ( obj_630e6e55_aeab_4de4_8f14_e62da0d45674 o )  ) )):named c54))
(assert (! (exists ((o Int)) ( type_945e86d3_2823_4f21_9f2a_39778a1f9395_Class9 ( obj_630e6e55_aeab_4de4_8f14_e62da0d45674 o )  ) ):named c55))

 ;end of formula 